NAME = file180,
TOURSIZE = 180,
LENGTH = 18720,
92,23,150,151,30,31,95,139,2,162,24,13,102,121,56,57,148,147,9,8,175,79,144,35,89,161,17,90,157,87,52,94,51,111,6,118,50,83,59,76,18,75,22,156,62,39,115,178,27,108,116,177,70,172,117,49,60,124,123,53,72,160,26,97,37,48,136,154,141,41,133,36,132,98,126,163,127,165,130,131,103,125,164,88,112,86,11,42,143,85,119,96,29,66,179,82,122,104,105,110,109,32,137,3,58,120,38,80,176,113,40,168,91,20,21,78,44,65,180,81,174,5,145,14,152,153,140,25,134,77,135,1,93,19,170,169,63,28,64,55,54,61,158,68,69,155,99,146,100,101,34,171,10,114,46,106,45,67,33,7,129,128,12,159,71,166,167,43,74,142,73,84,47,107,4,173,16,15,149,138